c Random generated cnf formula, satisfiable: true
p cnf 10 50
1 2 9 0
-7 4 1 0
1 7 10 0
10 -4 -5 0
-2 -10 -4 0
-1 -6 4 0
-3 9 -6 0
-8 4 -2 0
-9 5 7 0
-9 5 2 0
-6 5 8 0
-7 -8 -3 0
-5 2 8 0
5 4 7 0
-10 8 2 0
5 9 -10 0
-8 6 -4 0
-1 8 -2 0
1 -7 -6 0
-5 -10 -1 0
5 2 8 0
-4 -8 -10 0
-4 -6 9 0
-6 9 8 0
3 9 2 0
-7 4 -8 0
9 -2 -5 0
-3 -7 -2 0
-10 -8 -4 0
2 6 8 0
3 -10 5 0
7 -9 -8 0
4 -8 -7 0
3 -7 -2 0
8 7 -4 0
-7 -6 -5 0
-8 -7 -2 0
-4 10 6 0
10 6 5 0
-2 9 -5 0
10 7 3 0
-3 7 8 0
5 8 -3 0
7 -3 10 0
7 2 10 0
-9 1 -3 0
4 7 -1 0
-3 9 4 0
-3 -9 -5 0
4 -6 3 0
